
Gurobi 13.0.0 (linux64, gurobi_cl) logging started Thu Jul  2 02:08:15 2026

Set parameter Username
Set parameter LicenseID to value 2840060
Set parameter LogFile to value "gurobi.log"
Using license file /opt/gurobi/gurobi.lic
Academic license - for non-commercial use only - expires 2027-07-01
